10J3M/DAT/10J3MUNA-2.dat
10 3
48.8377 2385.1209
28.9915 840.5071
5.8005 33.6458
21.5713 465.321
18.4835 341.6398
44.6899 1997.1872
20.184 407.3939
39.6022 1568.3342
8.9948 80.9064
38.2336 1461.8082
9581.8645