10J3M/SOL/10J3MUNA-2.sol
solution status: optimal solution found
objective value:                     91.7963333333333
x#1#3                                               1 	(obj:0)
x#2#1                               0.578177511799436 	(obj:0)
x#2#2                               0.421822488200564 	(obj:0)
x#3#1                                               1 	(obj:0)
x#4#1                                               1 	(obj:0)
x#5#1                                               1 	(obj:0)
x#6#2                              0.0387395511439199 	(obj:0)
x#6#3                                0.96126044885608 	(obj:0)
x#7#1                                               1 	(obj:0)
x#8#2                                               1 	(obj:0)
x#9#1                                               1 	(obj:0)
x#10#2                                              1 	(obj:0)
z                                    91.7963333333333 	(obj:1)
